data/solutions/planning/wellformed/hard/weighting/wellformed_hard_instance88_gurobi.sol
Elapsed time: 1000.49
Nodes explored: 435272
Nodes left: 399254
Relative gap: 8.105
Upper bound: 2.92647026642e+12
Lower bound: 2689286457070
C[0]=87406.0
C[1]=87402.0
C[2]=87396.0
C[3]=86845.0
C[4]=85297.0
C[5]=85104.0
C[6]=84459.0
C[7]=84437.0
C[8]=83453.0
C[9]=83327.0
C[10]=82932.0
C[11]=82364.0
C[12]=82358.0
C[13]=81221.0
C[14]=81082.0
C[15]=79948.0
C[16]=78307.0
C[17]=76915.0
C[18]=76743.0
C[19]=72839.0
C[20]=72412.0
C[21]=70746.0
C[22]=70722.0
C[23]=70356.0
C[24]=69585.0
y[0]=11
y[1]=23
y[2]=8
y[3]=2
y[4]=12
y[5]=10
y[6]=12
y[7]=2
y[8]=6
y[9]=19
y[10]=24
y[11]=4
y[12]=20
y[13]=21
y[14]=3
y[15]=20
y[16]=17
y[17]=8
y[18]=6
y[19]=8
y[20]=2
y[21]=0
y[22]=22
y[23]=16
y[24]=17
y[25]=3
y[26]=1
y[27]=19
y[28]=3
y[29]=21
y[30]=21
y[31]=24
y[32]=17
y[33]=2
y[34]=19
y[35]=22
y[36]=9
y[37]=21
y[38]=2
y[39]=8
y[40]=3
y[41]=9
y[42]=11
y[43]=8
y[44]=11
y[45]=15
y[46]=19
y[47]=9
y[48]=12
y[49]=5
y[50]=0
y[51]=13
y[52]=12
y[53]=15
y[54]=0
y[55]=10
y[56]=14
y[57]=18
y[58]=11
y[59]=8
y[60]=0
y[61]=10
y[62]=19
y[63]=23
y[64]=3
y[65]=0
y[66]=5
y[67]=10
y[68]=7
y[69]=18
y[70]=8
y[71]=23
y[72]=16
y[73]=6
y[74]=19
y[75]=15
y[76]=5
y[77]=16
y[78]=0
y[79]=2
y[80]=19
y[81]=14
y[82]=23
y[83]=2
y[84]=3
y[85]=19
y[86]=1
y[87]=11
y[88]=17
y[89]=7
y[90]=15
y[91]=5
y[92]=13
y[93]=0
y[94]=9
y[95]=1
y[96]=2
y[97]=7
y[98]=20
y[99]=2
y[100]=18
y[101]=14
y[102]=4
y[103]=14
y[104]=5
y[105]=24
y[106]=15
y[107]=11
y[108]=0
y[109]=24
y[110]=5
y[111]=16
y[112]=0
y[113]=5
y[114]=2
y[115]=24
y[116]=7
y[117]=22
y[118]=0
y[119]=23
y[120]=13
y[121]=21
y[122]=24
y[123]=5
y[124]=5
y[125]=10
y[126]=17
y[127]=1
y[128]=13
y[129]=23
y[130]=9
y[131]=15
y[132]=6
y[133]=2
y[134]=10
y[135]=24
y[136]=24
y[137]=3
y[138]=2
y[139]=19
y[140]=19
y[141]=14
y[142]=12
y[143]=4
y[144]=12
y[145]=14
y[146]=16
y[147]=14
y[148]=1
y[149]=23
y[150]=12
y[151]=24
y[152]=7
y[153]=24
y[154]=17
y[155]=0
y[156]=1
y[157]=0
y[158]=2
y[159]=6
y[160]=21
y[161]=24
y[162]=18
y[163]=3
y[164]=23
y[165]=24
y[166]=24
y[167]=4
y[168]=13
y[169]=9
y[170]=23
y[171]=7
y[172]=22
y[173]=16
y[174]=3
y[175]=5
y[176]=12
y[177]=8
y[178]=9
y[179]=1
y[180]=24
y[181]=16
y[182]=9
y[183]=13
y[184]=20
y[185]=12
y[186]=24
y[187]=11
y[188]=20
y[189]=3
y[190]=8
y[191]=1
y[192]=18
y[193]=15
y[194]=12
y[195]=6
y[196]=18
y[197]=7
y[198]=11
y[199]=2
y[200]=4
y[201]=8
y[202]=18
y[203]=1
y[204]=10
y[205]=14
y[206]=17
y[207]=9
y[208]=10
y[209]=10
y[210]=5
y[211]=20
y[212]=12
y[213]=5
y[214]=12
y[215]=16
y[216]=24
y[217]=13
y[218]=3
y[219]=19
y[220]=24
y[221]=13
y[222]=22
y[223]=17
y[224]=7
y[225]=8
y[226]=18
y[227]=16
y[228]=4
y[229]=22
y[230]=2
y[231]=19
y[232]=0
y[233]=21
y[234]=18
y[235]=19
y[236]=10
y[237]=6
y[238]=5
y[239]=9
y[240]=24
y[241]=8
y[242]=3
y[243]=4
y[244]=15
y[245]=8
y[246]=8
y[247]=1
y[248]=21
y[249]=8
y[250]=8
y[251]=11
y[252]=17
y[253]=13
y[254]=14
y[255]=4
y[256]=14
y[257]=8
y[258]=24
y[259]=15
y[260]=5
y[261]=0
y[262]=1
y[263]=20
y[264]=5
y[265]=9
y[266]=1
y[267]=4
y[268]=2
y[269]=14
y[270]=5
y[271]=21
y[272]=3
y[273]=10
y[274]=24
y[275]=4
y[276]=22
y[277]=12
y[278]=23
y[279]=1
y[280]=0
y[281]=22
y[282]=18
y[283]=14
y[284]=11
y[285]=10
y[286]=1
y[287]=6
y[288]=10
y[289]=17
y[290]=18
y[291]=7
y[292]=15
y[293]=2
y[294]=2
y[295]=0
y[296]=11
y[297]=14
y[298]=17
y[299]=10
y[300]=1
y[301]=9
y[302]=10
y[303]=4
y[304]=1
y[305]=6
y[306]=20
y[307]=22
y[308]=8
y[309]=17
y[310]=24
y[311]=11
y[312]=24
y[313]=19
y[314]=24
y[315]=6
y[316]=7
y[317]=1
y[318]=24
y[319]=10
y[320]=7
y[321]=22
y[322]=15
y[323]=9
y[324]=23
y[325]=13
y[326]=13
y[327]=17
y[328]=22
y[329]=8
y[330]=12
y[331]=7
y[332]=14
y[333]=15
y[334]=1
y[335]=22
y[336]=20
y[337]=9
y[338]=16
y[339]=24
y[340]=16
y[341]=8
y[342]=6
y[343]=13
y[344]=19
y[345]=16
y[346]=21
y[347]=1
y[348]=16
y[349]=21
y[350]=2
y[351]=17
y[352]=20
y[353]=21
y[354]=3
y[355]=12
y[356]=11
y[357]=14
y[358]=1
y[359]=20
y[360]=15
y[361]=3
y[362]=18
y[363]=16
y[364]=22
y[365]=0
y[366]=17
y[367]=23
y[368]=19
y[369]=22
y[370]=4
y[371]=5
y[372]=16
y[373]=0
y[374]=23
y[375]=10
y[376]=20
y[377]=16
y[378]=5
y[379]=1
y[380]=14
y[381]=5
y[382]=4
y[383]=10
y[384]=24
y[385]=16
y[386]=2
y[387]=14
y[388]=9
y[389]=18
y[390]=2
y[391]=1
y[392]=7
y[393]=21
y[394]=8
y[395]=24
y[396]=2
y[397]=22
y[398]=17
y[399]=12
