data/solutions/planning/wellformed/hard/weighting/wellformed_hard_instance88_gurobi.log

Gurobi 6.5.2 (linux64) logging started Sun Mar  4 12:20:29 2018

Changed value of parameter LogFile to data/solutions/planning/wellformed/hard/weighting/wellformed_hard_instance88_gurobi.log
   Prev: gurobi.log  Default: 
Changed value of parameter Threads to 1
   Prev: 0  Min: 0  Max: 1024  Default: 0
Optimize a model with 450 rows, 10026 columns and 20074 nonzeros
Coefficient statistics:
  Matrix range    [1e+00, 1e+04]
  Objective range [1e+00, 2e+07]
  Bounds range    [1e+00, 1e+00]
  RHS range       [1e+00, 1e+00]
Presolve removed 3 rows and 3 columns
Presolve time: 0.03s
Presolved: 447 rows, 10023 columns, 20069 nonzeros
Variable types: 0 continuous, 10023 integer (10000 binary)
Found heuristic solution: objective 3.361577e+13

Root relaxation: objective 2.689261e+12, 1063 iterations, 0.03 seconds

    Nodes    |    Current Node    |     Objective Bounds      |     Work
 Expl Unexpl |  Obj  Depth IntInf | Incumbent    BestBd   Gap | It/Node Time

     0     0 2.6893e+12    0   64 3.3616e+13 2.6893e+12  92.0%     -    0s
     0     0 2.6893e+12    0   68 3.3616e+13 2.6893e+12  92.0%     -    0s
     0     0 2.6893e+12    0   69 3.3616e+13 2.6893e+12  92.0%     -    0s
     0     0 2.6893e+12    0   70 3.3616e+13 2.6893e+12  92.0%     -    0s
     0     0 2.6893e+12    0   65 3.3616e+13 2.6893e+12  92.0%     -    1s
     0     0 2.6893e+12    0   67 3.3616e+13 2.6893e+12  92.0%     -    1s
     0     0 2.6893e+12    0   70 3.3616e+13 2.6893e+12  92.0%     -    1s
     0     0 2.6893e+12    0   67 3.3616e+13 2.6893e+12  92.0%     -    1s
     0     2 2.6893e+12    0   67 3.3616e+13 2.6893e+12  92.0%     -    2s
H  135   135                    3.040962e+13 2.6893e+12  91.2%   110    4s
H  324   324                    1.042047e+13 2.6893e+12  74.2%  46.8    4s
H  351   351                    8.603030e+12 2.6893e+12  68.7%  43.3    4s
H  405   405                    8.189919e+12 2.6893e+12  67.2%  37.7    4s
   432   434 2.6979e+12  429   38 8.1899e+12 2.6893e+12  67.2%  35.5    5s
H  459   459                    6.037484e+12 2.6893e+12  55.5%  33.5    5s
H  494   493                    3.717665e+12 2.6893e+12  27.7%  31.9    5s
  1349  1248 2.6979e+12  739   70 3.7177e+12 2.6893e+12  27.7%  15.4   10s
  1400  1284 2.6893e+12   38   41 3.7177e+12 2.6893e+12  27.7%  48.8   15s
H 1513  1294                    3.168328e+12 2.6893e+12  15.1%  48.9   16s
H 1567  1270                    2.965169e+12 2.6893e+12  9.30%  47.3   17s
  1873  1476 2.6895e+12  455   41 2.9652e+12 2.6893e+12  9.30%  44.3   20s
H 1982  1491                    2.965161e+12 2.6893e+12  9.30%  50.6   24s
  2049  1537 2.6895e+12  543   38 2.9652e+12 2.6893e+12  9.30%  49.1   25s
  2154  1607 2.6895e+12  595   37 2.9652e+12 2.6893e+12  9.30%  63.0   30s
  2227  1656 2.6895e+12  632   37 2.9652e+12 2.6893e+12  9.30%  93.9   35s
  2308  1710 2.6895e+12  672   38 2.9652e+12 2.6893e+12  9.30%   122   40s
  2425  1788 2.6895e+12  731   40 2.9652e+12 2.6893e+12  9.30%   146   45s
  2768  2017 2.6895e+12  903   43 2.9652e+12 2.6893e+12  9.30%   143   50s
  3181  2217 2.6895e+12 1115   40 2.9652e+12 2.6893e+12  9.30%   139   55s
  3738  2551 2.6897e+12  453   43 2.9652e+12 2.6893e+12  9.30%   124   60s
  4059  2765 2.6897e+12  614   39 2.9652e+12 2.6893e+12  9.30%   131   65s
  4160  2833 2.6897e+12  664   43 2.9652e+12 2.6893e+12  9.30%   154   70s
  4280  2913 2.6897e+12  725   41 2.9652e+12 2.6893e+12  9.30%   176   75s
  4472  3041 2.6897e+12  823   38 2.9652e+12 2.6893e+12  9.30%   187   80s
H 4818  3353                    2.958692e+12 2.6893e+12  9.11%   188   84s
  4839  3376 2.6897e+12 1019   40 2.9587e+12 2.6893e+12  9.11%   188   85s
H 5466  3971                    2.956746e+12 2.6893e+12  9.05%   172   89s
  5520  4027 2.6895e+12  459   36 2.9567e+12 2.6893e+12  9.05%   171   90s
H 5601  4106                    2.938925e+12 2.6893e+12  8.49%   168   90s
  6499  5003 2.6901e+12  950   37 2.9389e+12 2.6893e+12  8.49%   146   95s
  7501  5980 2.6916e+12  485   35 2.9389e+12 2.6893e+12  8.49%   129  100s
  8895  7371 2.6916e+12  813   37 2.9389e+12 2.6893e+12  8.49%   109  105s
 10202  8610 2.6917e+12 1084   35 2.9389e+12 2.6893e+12  8.49%  96.0  119s
 10406  8759 2.6893e+12   32   40 2.9389e+12 2.6893e+12  8.49%  94.5  120s
 11815 10168 2.6898e+12  614   32 2.9389e+12 2.6893e+12  8.49%  85.9  125s
 13975 12233 2.6893e+12  190   41 2.9389e+12 2.6893e+12  8.49%  73.6  130s
 16421 14679 2.6961e+12  877   35 2.9389e+12 2.6893e+12  8.49%  63.7  135s
H17964 16128                    2.938911e+12 2.6893e+12  8.49%  58.6  137s
H17972 16136                    2.938910e+12 2.6893e+12  8.49%  58.6  137s
 19109 17275 2.7331e+12 1285   39 2.9389e+12 2.6893e+12  8.49%  55.4  140s
 21915 20062 2.8933e+12 4057   36 2.9389e+12 2.6893e+12  8.49%  49.0  145s
 22795 20924 2.6907e+12  779   36 2.9389e+12 2.6893e+12  8.49%  48.4  150s
 25337 23424 2.8320e+12  432   30 2.9389e+12 2.6893e+12  8.49%  44.1  155s
H26010 24036                    2.938905e+12 2.6893e+12  8.49%  43.1  156s
H26063 24089                    2.938888e+12 2.6893e+12  8.49%  43.0  156s
 28285 26242 2.8504e+12 2836   59 2.9389e+12 2.6893e+12  8.49%  40.0  160s
 30901 28787 2.6908e+12 1107   32 2.9389e+12 2.6893e+12  8.49%  37.1  165s
 32003 29853 2.6908e+12 1306   40 2.9389e+12 2.6893e+12  8.49%  36.1  170s
H32048 29894                    2.931357e+12 2.6893e+12  8.26%  36.1  170s
H32075 29917                    2.931281e+12 2.6893e+12  8.26%  36.1  170s
 33624 31406 2.6899e+12 1997   35 2.9313e+12 2.6893e+12  8.26%  34.7  175s
 34634 32385 2.6893e+12  664   38 2.9313e+12 2.6893e+12  8.26%  34.8  180s
 36895 34637 2.6897e+12  969   33 2.9313e+12 2.6893e+12  8.26%  33.1  185s
H37679 35305                    2.931105e+12 2.6893e+12  8.25%  32.6  187s
 37929 35500 2.6897e+12 1131   35 2.9311e+12 2.6893e+12  8.25%  32.8  190s
 38264 35786 2.6897e+12 1182   37 2.9311e+12 2.6893e+12  8.25%  35.2  195s
 38808 36196 2.6917e+12  842   41 2.9311e+12 2.6893e+12  8.25%  37.2  200s
 40621 38009 2.6917e+12 2655   41 2.9311e+12 2.6893e+12  8.25%  35.8  205s
 43250 40539 2.6904e+12  795   35 2.9311e+12 2.6893e+12  8.25%  34.0  210s
 45909 43177 2.6900e+12 1884   36 2.9311e+12 2.6893e+12  8.25%  32.5  215s
H46975 44195                    2.930726e+12 2.6893e+12  8.24%  31.9  216s
 49053 46255 2.6893e+12  670   38 2.9307e+12 2.6893e+12  8.24%  30.8  220s
H51428 48553                    2.930721e+12 2.6893e+12  8.24%  29.6  224s
 51719 48846 2.6894e+12 1930   40 2.9307e+12 2.6893e+12  8.24%  29.5  225s
 55387 52368 2.6896e+12  739   35 2.9307e+12 2.6893e+12  8.24%  27.9  230s
 57912 54877 2.6896e+12 1237   33 2.9307e+12 2.6893e+12  8.24%  26.9  235s
 58823 55630 2.6895e+12  710   34 2.9307e+12 2.6893e+12  8.24%  26.7  240s
 62030 58754 2.6893e+12 1294   40 2.9307e+12 2.6893e+12  8.24%  25.6  245s
H63790 60511                    2.930407e+12 2.6893e+12  8.23%  25.1  247s
 64943 61626 2.6897e+12 1501   41 2.9304e+12 2.6893e+12  8.23%  24.7  250s
H66502 63153                    2.930247e+12 2.6893e+12  8.22%  24.3  253s
 66922 63495 2.6898e+12  735   38 2.9302e+12 2.6893e+12  8.22%  24.2  255s
 69064 65609 2.6898e+12 1036   40 2.9302e+12 2.6893e+12  8.22%  23.8  260s
 71561 67972 2.6895e+12 1438   36 2.9302e+12 2.6893e+12  8.22%  23.2  265s
 75527 71887 2.6902e+12  884   38 2.9302e+12 2.6893e+12  8.22%  22.2  270s
 78862 75089 2.6898e+12 1254   38 2.9302e+12 2.6893e+12  8.22%  21.6  275s
H78863 75088                    2.930247e+12 2.6893e+12  8.22%  21.6  275s
 80836 77013 2.6896e+12 1033   36 2.9302e+12 2.6893e+12  8.22%  21.5  280s
 83418 79549 2.6898e+12  798   30 2.9302e+12 2.6893e+12  8.22%  21.0  285s
 85391 81480 infeasible 1140      2.9302e+12 2.6893e+12  8.22%  20.7  290s
 86226 82185 2.6893e+12  726   36 2.9302e+12 2.6893e+12  8.22%  20.6  295s
 89252 85177 2.6894e+12 1922   42 2.9302e+12 2.6893e+12  8.22%  20.1  300s
 92472 88365 2.6893e+12 2557   40 2.9302e+12 2.6893e+12  8.22%  19.5  305s
 95869 91688 2.6893e+12 2315   42 2.9302e+12 2.6893e+12  8.22%  19.0  310s
 98041 93730 2.6893e+12 1175   33 2.9302e+12 2.6893e+12  8.22%  18.8  315s
 100293 95904 2.6909e+12 1068   40 2.9302e+12 2.6893e+12  8.22%  18.5  320s
H100576 96140                    2.930193e+12 2.6893e+12  8.22%  18.8  323s
 100967 96497 2.6908e+12 1160   34 2.9302e+12 2.6893e+12  8.22%  18.8  325s
 102212 97450 infeasible 1328      2.9302e+12 2.6893e+12  8.22%  18.6  330s
 104498 99469 2.6893e+12  892   32 2.9302e+12 2.6893e+12  8.22%  18.4  335s
 107143 102021 2.6893e+12 1254   37 2.9302e+12 2.6893e+12  8.22%  18.1  340s
 110666 105435 2.6893e+12 2765   43 2.9302e+12 2.6893e+12  8.22%  17.7  345s
 113127 107871 2.6893e+12 1242   36 2.9302e+12 2.6893e+12  8.22%  17.4  350s
 116116 110702 2.6893e+12 1043   33 2.9302e+12 2.6893e+12  8.22%  17.1  355s
 119607 114104 2.6893e+12 2095   41 2.9302e+12 2.6893e+12  8.22%  16.8  360s
 122112 116414 2.6894e+12 1300   51 2.9302e+12 2.6893e+12  8.22%  16.5  365s
 122764 116879 2.6900e+12 1366   34 2.9302e+12 2.6893e+12  8.22%  16.9  370s
H123106 117007                    2.930074e+12 2.6893e+12  8.22%  17.0  371s
 123886 117531 2.6910e+12 1694   33 2.9301e+12 2.6893e+12  8.22%  16.9  375s
 125686 119104 2.6900e+12 1459   36 2.9301e+12 2.6893e+12  8.22%  16.8  380s
 128026 121171 2.6896e+12 1436   34 2.9301e+12 2.6893e+12  8.22%  16.6  385s
 129043 121808 2.6900e+12 1417   31 2.9301e+12 2.6893e+12  8.22%  16.5  390s
 130059 122425 2.6927e+12 1585   36 2.9301e+12 2.6893e+12  8.22%  16.5  395s
 131094 123249 2.6893e+12 1308   31 2.9301e+12 2.6893e+12  8.22%  16.4  400s
 132015 123943 2.6902e+12 1330   38 2.9301e+12 2.6893e+12  8.22%  16.5  405s
 132560 124285 2.6903e+12 1387   36 2.9301e+12 2.6893e+12  8.22%  16.9  410s
 133764 125247 2.6902e+12 1558   38 2.9301e+12 2.6893e+12  8.22%  16.9  415s
 135287 126475 2.6927e+12 1647   33 2.9301e+12 2.6893e+12  8.22%  16.7  420s
 137065 128034 2.6901e+12 1370   33 2.9301e+12 2.6893e+12  8.22%  16.6  425s
 139175 129833 2.6899e+12 1363   34 2.9301e+12 2.6893e+12  8.22%  16.5  430s
 140195 130552 2.6893e+12 1677   43 2.9301e+12 2.6893e+12  8.22%  16.7  435s
 142232 132317 2.6909e+12 1472   35 2.9301e+12 2.6893e+12  8.22%  16.5  440s
 144757 134524 2.6919e+12 1772   31 2.9301e+12 2.6893e+12  8.22%  16.3  445s
 147199 136506 2.6893e+12 1730   37 2.9301e+12 2.6893e+12  8.22%  16.2  450s
 149311 138344 2.6893e+12 1325   30 2.9301e+12 2.6893e+12  8.22%  16.0  455s
 150453 139104 2.6899e+12 1402   31 2.9301e+12 2.6893e+12  8.22%  16.0  460s
H151516 139828                    2.929847e+12 2.6893e+12  8.21%  16.0  463s
 153030 141159 2.6893e+12 1450   35 2.9298e+12 2.6893e+12  8.21%  15.9  465s
 156365 144156 2.6909e+12 1642   33 2.9298e+12 2.6893e+12  8.21%  15.7  470s
 158994 146550 2.6893e+12 1561   35 2.9298e+12 2.6893e+12  8.21%  15.5  475s
 161580 148834 infeasible 1589      2.9298e+12 2.6893e+12  8.21%  15.3  480s
 163017 149777 2.6936e+12 1416   36 2.9298e+12 2.6893e+12  8.21%  15.2  485s
 165250 151732 2.6893e+12 1616   36 2.9298e+12 2.6893e+12  8.21%  15.1  490s
 168744 154735 2.6894e+12 1480   36 2.9298e+12 2.6893e+12  8.21%  14.9  495s
H168749 154736                    2.929847e+12 2.6893e+12  8.21%  14.9  495s
 170444 156011 2.6893e+12 1416   32 2.9298e+12 2.6893e+12  8.21%  14.8  500s
 174166 159184 2.6893e+12 1331   28 2.9298e+12 2.6893e+12  8.21%  14.5  505s
 176147 160587 2.6936e+12 1446   32 2.9298e+12 2.6893e+12  8.21%  14.5  510s
 179485 163379 2.6893e+12 1563   37 2.9298e+12 2.6893e+12  8.21%  14.3  515s
 183209 166638 2.6919e+12 1345   42 2.9298e+12 2.6893e+12  8.21%  14.1  520s
 185739 168855 2.6893e+12 1606   64 2.9298e+12 2.6893e+12  8.21%  13.9  525s
 188737 171239 2.6893e+12 1506   37 2.9298e+12 2.6893e+12  8.21%  13.8  530s
 192487 174698 2.6893e+12 1492   37 2.9298e+12 2.6893e+12  8.21%  13.6  535s
 195600 177464 2.6893e+12 1718   39 2.9298e+12 2.6893e+12  8.21%  13.4  540s
 199004 180412 2.6893e+12 1466   34 2.9298e+12 2.6893e+12  8.21%  13.3  545s
 202141 183111 2.6894e+12 1715   57 2.9298e+12 2.6893e+12  8.21%  13.1  550s
 205488 186042 2.6893e+12 1432   33 2.9298e+12 2.6893e+12  8.21%  13.0  555s
 208594 188754 2.6893e+12 1724   39 2.9298e+12 2.6893e+12  8.21%  12.9  560s
 211767 191419 2.6896e+12 1397   33 2.9298e+12 2.6893e+12  8.21%  12.7  565s
 214478 193827 2.6936e+12 1635   37 2.9298e+12 2.6893e+12  8.21%  12.6  570s
 217086 196158 2.6902e+12 1392   31 2.9298e+12 2.6893e+12  8.21%  12.5  575s
H217538 196396                    2.929781e+12 2.6893e+12  8.21%  12.5  576s
 219093 197456 2.6893e+12 1658   37 2.9298e+12 2.6893e+12  8.21%  12.5  580s
 222624 200556 2.6893e+12 1314   52 2.9298e+12 2.6893e+12  8.21%  12.3  585s
 224806 202498 2.6932e+12 1335   34 2.9298e+12 2.6893e+12  8.21%  12.3  590s
 227289 204580 2.6893e+12 1317   32 2.9298e+12 2.6893e+12  8.21%  12.2  595s
 229832 206806 2.6893e+12 1311   32 2.9298e+12 2.6893e+12  8.21%  12.1  600s
 230466 207333 2.6902e+12 1384   33 2.9298e+12 2.6893e+12  8.21%  12.3  605s
 230779 207480 2.6902e+12 1424   35 2.9298e+12 2.6893e+12  8.21%  12.7  610s
 231206 207645 infeasible 1468      2.9298e+12 2.6893e+12  8.21%  13.1  615s
 232000 208277 2.6901e+12 1741   59 2.9298e+12 2.6893e+12  8.21%  13.2  620s
 233478 209573 2.6893e+12 1360   42 2.9298e+12 2.6893e+12  8.21%  13.2  625s
 236208 212234 2.6893e+12 1826   40 2.9298e+12 2.6893e+12  8.21%  13.1  630s
 238715 214604 2.6901e+12 1892   37 2.9298e+12 2.6893e+12  8.21%  13.0  635s
H239355 215242                    2.929507e+12 2.6893e+12  8.20%  13.0  635s
 241701 217533 2.6925e+12 2634   29 2.9295e+12 2.6893e+12  8.20%  12.9  640s
 244993 220735 2.6893e+12 1663   36 2.9295e+12 2.6893e+12  8.20%  12.8  645s
 248244 223884 2.6893e+12 1190   40 2.9295e+12 2.6893e+12  8.20%  12.7  650s
 251522 227062 2.6893e+12 1035   34 2.9295e+12 2.6893e+12  8.20%  12.6  655s
 254062 229522 2.6893e+12 1255   36 2.9295e+12 2.6893e+12  8.20%  12.5  660s
 256734 232154 2.6893e+12 1938   42 2.9295e+12 2.6893e+12  8.20%  12.5  665s
 259379 234689 2.6893e+12 2247   40 2.9295e+12 2.6893e+12  8.20%  12.4  670s
 261918 237084 2.6893e+12 1031   34 2.9295e+12 2.6893e+12  8.20%  12.4  675s
H264936 240078                    2.929507e+12 2.6893e+12  8.20%  12.3  679s
 265155 240299 2.6893e+12 2356   38 2.9295e+12 2.6893e+12  8.20%  12.3  680s
 268479 243375 2.6893e+12  987   33 2.9295e+12 2.6893e+12  8.20%  12.2  685s
 271681 246541 2.6893e+12 2170   41 2.9295e+12 2.6893e+12  8.20%  12.1  690s
 274665 249393 2.6893e+12  920   34 2.9295e+12 2.6893e+12  8.20%  12.0  695s
 276957 251682 2.6893e+12 1367   35 2.9295e+12 2.6893e+12  8.20%  12.0  700s
 280475 255090 2.6893e+12 1855   39 2.9295e+12 2.6893e+12  8.20%  11.9  705s
 282768 257228 2.6896e+12 1223   35 2.9295e+12 2.6893e+12  8.20%  11.8  710s
 284183 258197 infeasible 1404      2.9295e+12 2.6893e+12  8.20%  11.8  715s
 286745 260413 2.6893e+12 1260   38 2.9295e+12 2.6893e+12  8.20%  11.8  720s
 289891 263484 2.6910e+12 1894   33 2.9295e+12 2.6893e+12  8.20%  11.7  725s
 292746 266157 2.6893e+12 1396   37 2.9295e+12 2.6893e+12  8.20%  11.6  730s
 295982 269275 2.6893e+12 1104   29 2.9295e+12 2.6893e+12  8.20%  11.6  735s
 299141 272349 2.6893e+12 1544   39 2.9295e+12 2.6893e+12  8.20%  11.5  740s
 302560 275632 2.6893e+12 1511   39 2.9295e+12 2.6893e+12  8.20%  11.4  745s
 305257 278078 2.6893e+12 1109   31 2.9295e+12 2.6893e+12  8.20%  11.4  750s
 307483 279871 2.6893e+12 1124   32 2.9295e+12 2.6893e+12  8.20%  11.4  755s
H310379 282614                    2.929254e+12 2.6893e+12  8.19%  11.3  759s
 310946 283181 2.6893e+12 1506   36 2.9293e+12 2.6893e+12  8.19%  11.3  760s
 314293 286382 2.6893e+12 1466   40 2.9293e+12 2.6893e+12  8.19%  11.2  765s
 317743 289688 2.6893e+12 1140   30 2.9293e+12 2.6893e+12  8.19%  11.1  770s
 321304 293192 2.6893e+12 1386   40 2.9293e+12 2.6893e+12  8.19%  11.1  775s
 324356 296131 2.6923e+12 2111   36 2.9293e+12 2.6893e+12  8.19%  11.0  780s
 326561 298056 2.6898e+12 1196   34 2.9293e+12 2.6893e+12  8.19%  11.1  785s
H326662 298153                    2.929243e+12 2.6893e+12  8.19%  11.1  786s
 327215 298602 2.6898e+12 1277   37 2.9292e+12 2.6893e+12  8.19%  11.3  790s
 327618 298817 2.6898e+12 1337   39 2.9292e+12 2.6893e+12  8.19%  11.7  795s
 328193 299196 2.6898e+12 1401   37 2.9292e+12 2.6893e+12  8.19%  12.0  800s
 330114 300863 2.6893e+12 1357   37 2.9292e+12 2.6893e+12  8.19%  12.0  805s
 333476 304144 2.6893e+12 1389   37 2.9292e+12 2.6893e+12  8.19%  11.9  810s
 337151 307675 2.6893e+12 1884   39 2.9292e+12 2.6893e+12  8.19%  11.9  815s
 340595 310924 2.6926e+12 2116   35 2.9292e+12 2.6893e+12  8.19%  11.8  820s
 344122 314255 2.6893e+12 1509   36 2.9292e+12 2.6893e+12  8.19%  11.7  825s
 347140 317126 2.6893e+12 1211   33 2.9292e+12 2.6893e+12  8.19%  11.6  830s
 348059 317914 2.6934e+12 1318   33 2.9292e+12 2.6893e+12  8.19%  11.7  835s
 348458 318103 2.6935e+12 1358   31 2.9292e+12 2.6893e+12  8.19%  12.1  840s
H348559 318136                    2.929243e+12 2.6893e+12  8.19%  12.2  841s
 348758 318243 2.6935e+12 1397   33 2.9292e+12 2.6893e+12  8.19%  12.5  845s
 349047 318338 infeasible 1419      2.9292e+12 2.6893e+12  8.19%  12.8  850s
H349298 318455                    2.928158e+12 2.6893e+12  8.16%  13.0  853s
 349707 318824 2.6893e+12 1472   39 2.9282e+12 2.6893e+12  8.16%  13.0  855s
 350991 319991 2.6893e+12 1159   33 2.9282e+12 2.6893e+12  8.16%  12.9  860s
 354411 323200 2.6905e+12 2102   34 2.9282e+12 2.6893e+12  8.16%  12.9  865s
 357620 326275 2.6917e+12 1890   32 2.9282e+12 2.6893e+12  8.16%  12.8  870s
 361398 329899 2.6893e+12 1142   29 2.9282e+12 2.6893e+12  8.16%  12.8  875s
 364209 332601 2.6893e+12 1144   30 2.9282e+12 2.6893e+12  8.16%  12.7  880s
 367173 335441 2.6893e+12 1217   36 2.9282e+12 2.6893e+12  8.16%  12.6  885s
 370204 338364 2.6920e+12 1981   36 2.9282e+12 2.6893e+12  8.16%  12.6  890s
 373741 341737 2.6893e+12 1800   36 2.9282e+12 2.6893e+12  8.16%  12.5  895s
 377143 344961 2.6893e+12 1148   28 2.9282e+12 2.6893e+12  8.16%  12.4  900s
H377758 345526                    2.928110e+12 2.6893e+12  8.16%  12.4  901s
 380794 348467 2.6893e+12 1780   38 2.9281e+12 2.6893e+12  8.16%  12.3  905s
H380921 348588                    2.927267e+12 2.6893e+12  8.13%  12.3  905s
 384142 351688 2.6897e+12 2015   35 2.9273e+12 2.6893e+12  8.13%  12.3  910s
 386893 354149 2.6893e+12 1397   37 2.9273e+12 2.6893e+12  8.13%  12.2  915s
 389944 357019 2.6926e+12 1725   68 2.9273e+12 2.6893e+12  8.13%  12.2  920s
 393290 360008 2.6893e+12 1149   30 2.9273e+12 2.6893e+12  8.13%  12.1  925s
 396690 363264 2.6893e+12 1181   30 2.9273e+12 2.6893e+12  8.13%  12.0  930s
 399865 366298 2.6893e+12 1163   34 2.9273e+12 2.6893e+12  8.13%  12.0  935s
 403483 369785 2.6893e+12 1652   38 2.9273e+12 2.6893e+12  8.13%  11.9  940s
 406821 372921 2.6893e+12 1640   38 2.9273e+12 2.6893e+12  8.13%  11.9  945s
H410214 376192                    2.927224e+12 2.6893e+12  8.13%  11.8  949s
 410339 376291 2.6893e+12 1193   31 2.9272e+12 2.6893e+12  8.13%  11.8  950s
 414157 379981 2.6893e+12 1880   39 2.9272e+12 2.6893e+12  8.13%  11.7  955s
 417353 382989 2.6893e+12 1663   39 2.9272e+12 2.6893e+12  8.13%  11.7  960s
 419202 384505 2.6893e+12 1245   35 2.9272e+12 2.6893e+12  8.13%  11.6  965s
 422435 387614 2.6893e+12 1636   38 2.9272e+12 2.6893e+12  8.13%  11.6  970s
 425211 390202 2.6893e+12 1504   36 2.9272e+12 2.6893e+12  8.13%  11.5  975s
H426955 391888                    2.926470e+12 2.6893e+12  8.10%  11.5  977s
 428450 393344 2.6933e+12 2178   56 2.9265e+12 2.6893e+12  8.10%  11.5  980s
 431830 396458 2.6893e+12 1304   33 2.9265e+12 2.6893e+12  8.10%  11.4  985s
 433865 398305 2.6925e+12 1320   25 2.9265e+12 2.6893e+12  8.10%  11.4  990s
 435272 399254 2.6925e+12 1482   31 2.9265e+12 2.6893e+12  8.10%  11.4  995s

Explored 438492 nodes (4994768 simplex iterations) in 1000.01 seconds
Thread count was 1 (of 8 available processors)

Time limit reached
Best objective 2.926470266417e+12, best bound 2.689286457070e+12, gap 8.1048%
